/*********************************************
 * OPL 12.6.0.0 Data
 * Author: Adrian Rodriguez Bazaga, Pau Rodriguez Esmerats
 * Creation Date: 30/11/2017 at 19:59:14
 *********************************************/

nNurses=1015;
maxConsec=2;
maxPresence=7;
maxHours=5;
minHours=1;
demand= [222 241 350 335 241 350 335 249 257 130 32 25 41 38 51 30 35 21 19 13 190 363 183 289  ];
